20 43
1 7
1 12
1 13
2 10
2 17
2 20
3 4
3 6
3 8
3 10
3 11
3 12
3 19
4 7
4 11
4 12
5 8
5 9
5 15
5 16
5 18
5 19
6 17
7 10
7 13
7 14
8 9
8 10
8 15
8 16
9 12
9 17
10 14
11 16
11 20
13 17
13 20
14 16
14 17
14 18
15 20
16 18
17 19
0 0 0 0 0 0 0 0 0 0 0 0 0 0 0 0 0 0 0 0